n = 18;
m = 5;

G = 
[[0.   0.   0.53 0.44 0.87 0.   0.99 0.   0.73 0.56 0.17 0.26 0.   0.34 0.   0.   0.02 0.41]
 [0.   0.   0.57 0.97 0.39 0.17 0.   0.   0.   0.17 0.42 0.   0.83 0.   0.   0.13 0.8  0.36]
 [0.53 0.57 0.   0.   0.   0.71 0.61 0.25 0.8  0.18 0.92 0.25 0.61 0.   0.   0.   0.09 0.73]
 [0.44 0.97 0.   0.   0.85 0.   0.59 0.58 0.54 0.97 0.   0.99 0.2  0.68 0.   0.7  0.   0.53]
 [0.87 0.39 0.   0.85 0.   0.   0.64 0.   0.   0.3  0.   0.39 0.7  0.67 0.   0.   0.   0.3 ]
 [0.   0.17 0.71 0.   0.   0.   0.   0.   0.42 0.64 0.78 0.91 0.   0.   0.   0.21 0.   0.69]
 [0.99 0.   0.61 0.59 0.64 0.   0.   0.   0.58 0.85 0.   0.   0.84 0.   0.15 0.94 0.57 0.  ]
 [0.   0.   0.25 0.58 0.   0.   0.   0.   0.56 0.   0.   0.   0.   0.91 0.53 0.25 0.08 0.29]
 [0.73 0.   0.8  0.54 0.   0.42 0.58 0.56 0.   0.65 0.52 0.08 0.   0.65 0.4  0.14 0.79 0.83]
 [0.56 0.17 0.18 0.97 0.3  0.64 0.85 0.   0.65 0.   0.21 0.   0.68 0.04 0.   0.   0.   0.  ]
 [0.17 0.42 0.92 0.   0.   0.78 0.   0.   0.52 0.21 0.   0.   0.   0.23 0.   0.91 0.23 0.08]
 [0.26 0.   0.25 0.99 0.39 0.91 0.   0.   0.08 0.   0.   0.   0.37 0.07 0.48 0.   0.   0.  ]
 [0.   0.83 0.61 0.2  0.7  0.   0.84 0.   0.   0.68 0.   0.37 0.   0.08 0.   0.   0.   0.21]
 [0.34 0.   0.   0.68 0.67 0.   0.   0.91 0.65 0.04 0.23 0.07 0.08 0.   0.   0.98 0.43 0.  ]
 [0.   0.   0.   0.   0.   0.   0.15 0.53 0.4  0.   0.   0.48 0.   0.   0.   0.47 0.95 0.  ]
 [0.   0.13 0.   0.7  0.   0.21 0.94 0.25 0.14 0.   0.91 0.   0.   0.98 0.47 0.   0.48 0.8 ]
 [0.02 0.8  0.09 0.   0.   0.   0.57 0.08 0.79 0.   0.23 0.   0.   0.43 0.95 0.48 0.   0.82]
 [0.41 0.36 0.73 0.53 0.3  0.69 0.   0.29 0.83 0.   0.08 0.   0.21 0.   0.   0.8  0.82 0.  ]];

H = 
[[0.   0.45 0.   0.59 0.  ]
 [0.45 0.   0.   0.83 0.56]
 [0.   0.   0.   0.4  0.15]
 [0.59 0.83 0.4  0.   0.  ]
 [0.   0.56 0.15 0.   0.  ]];
